NAME: random-78-19835
TYPE: TSP
COMMENT: size=78 seed=19835
DIMENSION: 158
EDGE_WEIGHT_TYPE: EUC_2D
NODE_COORD_SECTION
+0 845 892
-0 845 892
+1 701 199
-1 589 275
+2 674 282
-2 318 381
+3 966 875
-3 325 623
+4 181 371
-4 965 745
+5 845 681
-5 761 710
+6 999 258
-6 537 540
+7 963 249
-7 763 364
+8 885 118
-8 150 585
+9 909 474
-9 386 373
+10 145 384
-10 704 86
+11 441 748
-11 764 429
+12 367 663
-12 494 430
+13 928 796
-13 258 756
+14 990 825
-14 552 958
+15 749 581
-15 135 824
+16 45 949
-16 929 727
+17 74 141
-17 473 642
+18 960 980
-18 246 526
+19 997 89
-19 587 396
+20 932 48
-20 57 550
+21 708 383
-21 534 304
+22 457 102
-22 605 180
+23 261 10
-23 492 950
+24 929 318
-24 103 607
+25 256 188
-25 973 941
+26 692 244
-26 790 710
+27 290 951
-27 512 111
+28 75 576
-28 954 283
+29 874 472
-29 408 231
+30 912 533
-30 817 281
+31 974 167
-31 214 124
+32 574 464
-32 899 124
+33 763 862
-33 601 105
+34 261 398
-34 323 498
+35 162 235
-35 173 709
+36 919 421
-36 36 977
+37 725 227
-37 632 69
+38 472 951
-38 286 998
+39 404 301
-39 165 794
+40 700 360
-40 721 893
+41 116 542
-41 727 788
+42 539 604
-42 216 788
+43 389 831
-43 117 488
+44 957 452
-44 354 688
+45 471 958
-45 5 152
+46 770 432
-46 247 859
+47 438 175
-47 731 635
+48 249 273
-48 51 194
+49 180 335
-49 7 941
+50 485 909
-50 770 950
+51 872 39
-51 112 214
+52 618 331
-52 722 3
+53 859 672
-53 843 667
+54 26 737
-54 418 309
+55 347 569
-55 895 389
+56 395 959
-56 569 769
+57 434 228
-57 542 109
+58 7 920
-58 421 87
+59 920 163
-59 641 539
+60 652 438
-60 294 157
+61 531 5
-61 861 418
+62 180 810
-62 623 731
+63 347 873
-63 75 520
+64 66 179
-64 448 960
+65 398 386
-65 390 513
+66 77 116
-66 163 55
+67 666 411
-67 453 657
+68 396 427
-68 277 944
+69 457 931
-69 37 638
+70 951 92
-70 402 701
+71 360 562
-71 798 916
+72 743 989
-72 305 899
+73 790 605
-73 694 140
+74 711 787
-74 840 652
+75 832 742
-75 537 702
+76 7 85
-76 156 641
+77 353 967
-77 550 610
+78 153 646
-78 544 989
PRECEDENCE_SECTION
+0 -0
+1 -1
+2 -2
+3 -3
+4 -4
+5 -5
+6 -6
+7 -7
+8 -8
+9 -9
+10 -10
+11 -11
+12 -12
+13 -13
+14 -14
+15 -15
+16 -16
+17 -17
+18 -18
+19 -19
+20 -20
+21 -21
+22 -22
+23 -23
+24 -24
+25 -25
+26 -26
+27 -27
+28 -28
+29 -29
+30 -30
+31 -31
+32 -32
+33 -33
+34 -34
+35 -35
+36 -36
+37 -37
+38 -38
+39 -39
+40 -40
+41 -41
+42 -42
+43 -43
+44 -44
+45 -45
+46 -46
+47 -47
+48 -48
+49 -49
+50 -50
+51 -51
+52 -52
+53 -53
+54 -54
+55 -55
+56 -56
+57 -57
+58 -58
+59 -59
+60 -60
+61 -61
+62 -62
+63 -63
+64 -64
+65 -65
+66 -66
+67 -67
+68 -68
+69 -69
+70 -70
+71 -71
+72 -72
+73 -73
+74 -74
+75 -75
+76 -76
+77 -77
+78 -78
EOF
